NAME : CC75.2358977.tour
COMMENT : Cost = 0_2358977
COMMENT : Found by LKH [Keld Helsgaun] Sun Apr 23 15:14:36 2017
TYPE : TOUR
DIMENSION : 155
TOUR_SECTION
1
74
149
49
124
14
89
47
122
52
127
44
119
20
95
57
60
132
55
130
135
53
65
128
140
75
150
10
85
155
35
110
36
111
61
136
33
108
70
145
64
139
45
120
50
62
137
125
15
90
40
115
26
67
142
101
25
39
100
54
129
21
96
114
71
2
146
77
154
68
143
28
103
18
38
113
93
51
126
16
91
11
86
23
98
30
105
43
118
12
87
17
46
92
31
106
121
34
24
109
99
19
94
72
147
152
41
32
107
116
13
88
5
80
8
83
56
131
4
79
6
81
27
102
63
138
66
141
153
7
82
42
117
73
76
148
151
3
78
48
123
59
134
37
112
22
97
29
69
144
58
104
133
9
84
-1
EOF
